commentline
0
Monkhorst
15 15 15
0  0  0