Mo_Nb Optimized SQS, lattice constant of
   1.00000000000000     
     6.3997848189688762    0.0000000000000000    0.0000000000000000
     0.0000000000000000    6.3997848189688762    0.0000000000000000
     0.0000000000000000    0.0000000000000000    6.3997848189688762
   Mo   Nb
  12   4
Direct
  0.0000000000000000  0.0026047893407792  0.0023345611543633
  0.0000000000000000  0.0021042785339276  0.4977731279275304
  0.0000000000000000  0.4984529692394517  0.0014983450062971
  0.5000000000000000  0.0021042785339276  0.0022268720724696
  0.5000000000000000  0.0026047893407792  0.4976654388456367
  0.5000000000000000  0.4984529692394517  0.4985016549937029
  0.2500000000000000  0.2471583158665069  0.2500000000000000
  0.2500000000000000  0.2480765958155331  0.7500000000000000
  0.2500000000000000  0.7517874095540265  0.2500000000000000
  0.7500000000000000  0.2471583158665069  0.2500000000000000
  0.7500000000000000  0.2480765958155331  0.7500000000000000
  0.7500000000000000  0.7517874095540265  0.2500000000000000
  0.0000000000000000  0.4969546835026932  0.4965934145882471
  0.5000000000000000  0.4969546835026932  0.0034065854117529
  0.2500000000000000  0.7528609581470960  0.7500000000000000
  0.7500000000000000  0.7528609581470960  0.7500000000000000
 
  0.00000000E+00  0.00000000E+00  0.00000000E+00
  0.00000000E+00  0.00000000E+00  0.00000000E+00
  0.00000000E+00  0.00000000E+00  0.00000000E+00
  0.00000000E+00  0.00000000E+00  0.00000000E+00
  0.00000000E+00  0.00000000E+00  0.00000000E+00
  0.00000000E+00  0.00000000E+00  0.00000000E+00
  0.00000000E+00  0.00000000E+00  0.00000000E+00
  0.00000000E+00  0.00000000E+00  0.00000000E+00
  0.00000000E+00  0.00000000E+00  0.00000000E+00
  0.00000000E+00  0.00000000E+00  0.00000000E+00
  0.00000000E+00  0.00000000E+00  0.00000000E+00
  0.00000000E+00  0.00000000E+00  0.00000000E+00
  0.00000000E+00  0.00000000E+00  0.00000000E+00
  0.00000000E+00  0.00000000E+00  0.00000000E+00
  0.00000000E+00  0.00000000E+00  0.00000000E+00
  0.00000000E+00  0.00000000E+00  0.00000000E+00
