Mo_Nb Optimized SQS, lattice constant of
   1.00000000000000     
     6.3691512766607854    0.0000000000000000    0.0000000000000000
     0.0000000000000000    6.3691512766607854    0.0000000000000000
     0.0000000000000000    0.0000000000000000    6.3691512766607854
   Mo   Nb
  14   2
Direct
  0.9988653113335104  0.0010219894938643  0.0011346886664896
  0.9991336900714316  0.0009220340883402  0.4990779659116598
  0.9988159531817544  0.4988159531817544  0.0011840468182456
  0.9988653113335104  0.4988653113335104  0.4989780105061357
  0.5009220340883402  0.0009220340883402  0.0008663099285684
  0.5010219894938572  0.4988653113335104  0.0011346886664896
  0.5009220340883402  0.4991336900714316  0.4990779659116598
  0.2489780105061357  0.2511346886664896  0.2488653113335104
  0.2490779659116598  0.2508663099285684  0.7509220340883402
  0.2490779659116598  0.7490779659116598  0.2491336900714316
  0.7511840468182456  0.2511840468182456  0.2488159531817544
  0.7511346886664896  0.2511346886664896  0.7510219894938572
  0.7511346886664896  0.7489780105061428  0.2488653113335104
  0.7508663099285684  0.7490779659116598  0.7509220340883402
  0.5014796009161699  0.0014796009161699  0.4985203990838301
  0.2485203990838301  0.7485203990838301  0.7514796009161699
 
  0.00000000E+00  0.00000000E+00  0.00000000E+00
  0.00000000E+00  0.00000000E+00  0.00000000E+00
  0.00000000E+00  0.00000000E+00  0.00000000E+00
  0.00000000E+00  0.00000000E+00  0.00000000E+00
  0.00000000E+00  0.00000000E+00  0.00000000E+00
  0.00000000E+00  0.00000000E+00  0.00000000E+00
  0.00000000E+00  0.00000000E+00  0.00000000E+00
  0.00000000E+00  0.00000000E+00  0.00000000E+00
  0.00000000E+00  0.00000000E+00  0.00000000E+00
  0.00000000E+00  0.00000000E+00  0.00000000E+00
  0.00000000E+00  0.00000000E+00  0.00000000E+00
  0.00000000E+00  0.00000000E+00  0.00000000E+00
  0.00000000E+00  0.00000000E+00  0.00000000E+00
  0.00000000E+00  0.00000000E+00  0.00000000E+00
  0.00000000E+00  0.00000000E+00  0.00000000E+00
  0.00000000E+00  0.00000000E+00  0.00000000E+00
