Mo_Nb Optimized SQS, lattice constant of
   1.00000000000000     
     6.4650520376566512    0.0000000000000000    0.0000000000000000
     0.0000000000000000    6.4650520376566512    0.0000000000000000
     0.0000000000000000    0.0000000000000000    6.4650520376566512
   Mo   Nb
   8   8
Direct
  0.0020136086371439  0.5023080548647431  0.0023080548647431
  0.4976919451352570  0.9979863913628563  0.0023080548647431
  0.4970414428852669  0.5029585571147333  0.0029585571147331
  0.4976919451352570  0.5023080548647431  0.4979863913628561
  0.2523080548647430  0.2520136086371439  0.2476919451352570
  0.2529585571147331  0.7470414428852667  0.2470414428852669
  0.2523080548647430  0.7476919451352569  0.7520136086371437
  0.7479863913628563  0.7476919451352569  0.2476919451352570
  0.0030817142628260  0.9969182857371740  0.0031399008677981
  0.0025352221891165  0.9974647778108834  0.4974647778108835
  0.0030817142628260  0.5031399008677983  0.4969182857371741
  0.4968600991322019  0.9969182857371740  0.4969182857371741
  0.2531399008677981  0.2530817142628259  0.7530817142628260
  0.7469182857371740  0.2530817142628259  0.2468600991322019
  0.7474647778108834  0.2525352221891165  0.7525352221891166
  0.7469182857371740  0.7468600991322017  0.7530817142628260
 
  0.00000000E+00  0.00000000E+00  0.00000000E+00
  0.00000000E+00  0.00000000E+00  0.00000000E+00
  0.00000000E+00  0.00000000E+00  0.00000000E+00
  0.00000000E+00  0.00000000E+00  0.00000000E+00
  0.00000000E+00  0.00000000E+00  0.00000000E+00
  0.00000000E+00  0.00000000E+00  0.00000000E+00
  0.00000000E+00  0.00000000E+00  0.00000000E+00
  0.00000000E+00  0.00000000E+00  0.00000000E+00
  0.00000000E+00  0.00000000E+00  0.00000000E+00
  0.00000000E+00  0.00000000E+00  0.00000000E+00
  0.00000000E+00  0.00000000E+00  0.00000000E+00
  0.00000000E+00  0.00000000E+00  0.00000000E+00
  0.00000000E+00  0.00000000E+00  0.00000000E+00
  0.00000000E+00  0.00000000E+00  0.00000000E+00
  0.00000000E+00  0.00000000E+00  0.00000000E+00
  0.00000000E+00  0.00000000E+00  0.00000000E+00
