ISTART = 1
PREC = Accurate
ICHARG = 1
ISMEAR = 1
POTIM = 0.1
SIGMA = 0.05
ISPIN = 2
IBRION = 2
NSW = 40
NPAR = 1
VOSKOWN = 1
LREAL = AUTO
#NBANDS = 300
#MAGMOM = 1*0.0 54*2.5
ENCUT = 750
ADDGRID = .TRUE.
LWAVE = .FALSE.
EDIFFG = 0.0000001
EDIFF  = 0.0000001
#ISIF = 0  #relax ions
#ISIF = 2  #relax ions, calc stress
#ISIF = 3  #relax ions,shape,volume
#ISIF = 4  #relax ions,shape
#ISIF = 5  #relax shape
#ISIF = 6  #relax shape,volume
#ISIF = 7  #relax volume
ISIF = 2