5_36_SQS
   1.00000000000000
     3.2321669444611936    0.0000000000000000    0.0000000000000000
     0.0000000000000000    3.2321669444611936    0.0000000000000000
     0.0000000000000000    0.0000000000000000    3.2321669444611936
   Mo   Nb
     1     1
Direct
  0.0000000000000000  0.0000000000000000  0.0000000000000000
  0.5000000000000000  0.5000000000000000  0.5000000000000000