Nb
   1.00000000000000
     3.3096451603090138    0.0000000000000000    0.0000000000000000
     0.0000000000000000    3.3096451603090138    0.0000000000000000
     0.0000000000000000    0.0000000000000000    3.3096451603090138
   Nb
     2
Direct
  0.0000000000000000  0.0000000000000000  0.0000000000000000
  0.5000000000000000  0.5000000000000000  0.5000000000000000