Mo
   1.00000000000000
     3.1693228079795195    0.0000000000000000    0.0000000000000000
     0.0000000000000000    3.1693228079795195    0.0000000000000000
     0.0000000000000000    0.0000000000000000    3.1693228079795195
   Mo
     2
Direct
  0.0000000000000000  0.0000000000000000  0.0000000000000000
  0.5000000000000000  0.5000000000000000  0.5000000000000000